; benchmark generated from python API
(set-info :status unknown)
(declare-datatypes ((RealState 0)) (((RMk1 (rval1 Real)) (RMk2 (rval2 Real)))))
 (assert
 (exists ((|v11:0_st| RealState) (val!5076 Real) )(exists ((|v10:1_st| RealState) (val!5077 Real) )(exists ((|v9:2_st| RealState) (val!5078 Real) )(exists ((|v8:3_st| RealState) (val!5079 Real) )(forall ((|v7:4| Real) )(forall ((|v6:5| Real) )(forall ((|v5:6| Real) )(forall ((|v4:7| Real) )(exists ((|v3:8_st| RealState) (val!5080 Real) )(exists ((|v2:9_st| RealState) (val!5081 Real) )(exists ((|v1:10_st| RealState) (val!5082 Real) )(exists ((|v0:11_st| RealState) (val!5083 Real) )(let ((?x3044 (- 20.0)))
 (let ((?x2397 (rval2 |v3:8_st|)))
 (let ((?x2448 (* 16.0 ?x2397)))
 (let ((?x3147 (rval2 |v9:2_st|)))
 (let ((?x2279 (* 11.0 ?x3147)))
 (let (($x2198 (<= (+ (+ (+ (* 5.0 ?x3147) (* 13.0 (rval2 |v2:9_st|))) ?x2279) ?x2448) ?x3044)))
 (let ((?x721 (rval2 |v0:11_st|)))
 (let ((?x3263 (* 17.0 ?x721)))
 (let ((?x280 (+ (+ (+ (* (- 17.0) ?x2397) (* 9.0 (rval2 |v8:3_st|))) ?x3263) (* (- 8.0) (rval2 |v1:10_st|)))))
 (let ((?x2072 (- 14.0)))
 (let ((?x3138 (rval2 |v1:10_st|)))
 (let ((?x71 (- 9.0)))
 (let ((?x3444 (* ?x71 ?x3138)))
 (let ((?x1927 (+ (+ (* 13.0 (rval2 |v11:0_st|)) (* (- 7.0) ?x2397)) (* (- 7.0) ?x3147))))
 (let ((?x1319 (- 13.0)))
 (let ((?x1332 (* 14.0 ?x3138)))
 (let ((?x323 (+ (+ (+ (* (- 17.0) |v7:4|) (* 3.0 (rval2 |v8:3_st|))) (* 16.0 |v7:4|)) ?x1332)))
 (let (($x1750 (or (and (<= ?x323 ?x1319) (<= (+ ?x1927 ?x3444) ?x2072)) (and (<= ?x280 1.0) $x2198))))
 (let ((?x1746 (+ (+ (+ (* 11.0 |v4:7|) (* 3.0 ?x721)) (* (- 19.0) (rval2 |v11:0_st|))) (* (- 12.0) ?x3138))))
 (let ((?x2503 (- 3.0)))
 (let ((?x220 (rval2 |v11:0_st|)))
 (let ((?x2188 (* 17.0 ?x220)))
 (let ((?x1388 (+ (+ (+ (* 20.0 (rval2 |v2:9_st|)) (* ?x2072 (rval2 |v2:9_st|))) ?x2188) (* (- 10.0) ?x3147))))
 (let ((?x977 (- 6.0)))
 (let ((?x73 (* ?x71 |v4:7|)))
 (let ((?x1020 (+ (+ (+ (* (- 10.0) |v4:7|) (* 7.0 ?x2397)) (* (- 2.0) ?x3138)) ?x73)))
 (let ((?x273 (rval2 |v2:9_st|)))
 (let ((?x2572 (- 4.0)))
 (let ((?x419 (* ?x2572 ?x273)))
 (let (($x2353 (<= (+ (+ (+ (* 13.0 ?x3147) (* (- 1.0) ?x3138)) ?x273) ?x419) ?x3044)))
 (let (($x494 (and (or $x2353 (<= ?x1020 ?x977)) (and (<= ?x1388 ?x2503) (<= ?x1746 1.0)))))
 (let ((?x1336 (* 20.0 ?x220)))
 (let (($x1105 (<= (+ (+ (+ (* ?x2503 ?x3147) (* 6.0 ?x220)) (* ?x2503 ?x721)) ?x1336) 3.0)))
 (let ((?x2096 (- 10.0)))
 (let ((?x2758 (* ?x2096 ?x721)))
 (let (($x3077 (<= (+ (+ (+ (* ?x2096 |v4:7|) (* 18.0 ?x273)) (* (- 1.0) |v6:5|)) ?x2758) 14.0)))
 (let ((?x3023 (* 10.0 ?x220)))
 (let ((?x3225 (+ (+ (+ (* 11.0 ?x3138) (* 16.0 (rval2 |v10:1_st|))) (* 0.0 |v5:6|)) ?x3023)))
 (let ((?x3071 (rval2 |v8:3_st|)))
 (let ((?x2475 (* ?x2503 ?x3071)))
 (let ((?x2952 (+ (+ (+ (* (- 11.0) |v5:6|) (* (- 17.0) ?x3071)) (* 20.0 |v7:4|)) ?x2475)))
 (let ((?x1929 (* 3.0 ?x220)))
 (let ((?x2285 (+ (+ (+ (* 3.0 |v4:7|) (* (- 16.0) ?x3147)) (* 18.0 ?x3147)) ?x1929)))
 (let ((?x2946 (- 12.0)))
 (let (($x1820 (<= (+ (+ (+ ?x1336 (* ?x2946 ?x3071)) (* 8.0 ?x3147)) (* (- 15.0) |v4:7|)) ?x2946)))
 (let ((?x3229 (+ (+ (+ (* (- 2.0) |v4:7|) (* 3.0 ?x721)) (* 2.0 (rval2 |v10:1_st|))) (* ?x2072 ?x3147))))
 (let (($x3094 (<= (+ (+ (+ (* 17.0 ?x3147) ?x419) (* ?x3044 |v7:4|)) (* ?x2503 ?x273)) ?x977)))
 (let (($x346 (and (and (and $x3094 (<= ?x3229 ?x3044)) (and $x1820 (<= ?x2285 ?x2096))) (and (and (<= ?x2952 ?x3044) (<= ?x3225 ?x977)) (and $x3077 $x1105)))))
 (let ((?x2364 (* 9.0 |v4:7|)))
 (let (($x1796 (<= (+ (+ (+ (* 13.0 |v6:5|) (* 16.0 ?x3071)) (* 4.0 |v6:5|)) ?x2364) 2.0)))
 (let ((?x2648 (- 8.0)))
 (let ((?x2250 (rval2 |v10:1_st|)))
 (let ((?x1116 (* 18.0 ?x2250)))
 (let ((?x247 (+ (+ (+ (* (- 15.0) |v7:4|) (* ?x2946 ?x2397)) (* (- 11.0) |v6:5|)) ?x1116)))
 (let ((?x2801 (* 8.0 ?x721)))
 (let (($x2599 (<= (+ (+ (+ (* 8.0 |v6:5|) (* 0.0 ?x3071)) (* ?x2572 |v6:5|)) ?x2801) 16.0)))
 (let ((?x2707 (* ?x2503 ?x273)))
 (let ((?x1692 (+ (+ (+ (* 20.0 ?x273) (* 15.0 |v4:7|)) (* (- 16.0) |v5:6|)) ?x2707)))
 (let ((?x1633 (- 7.0)))
 (let ((?x1205 (* 17.0 ?x2397)))
 (let (($x141 (<= (+ (+ (+ (* 11.0 ?x3138) (* ?x2072 ?x721)) (* (- 11.0) ?x2397)) ?x1205) ?x1633)))
 (let (($x482 (and (<= (+ (+ (+ (* 9.0 ?x3138) ?x419) ?x2475) (* 15.0 |v7:4|)) 1.0) $x141)))
 (let ((?x496 (- 19.0)))
 (let ((?x3446 (+ (+ (+ (* (- 5.0) ?x273) (* 0.0 ?x2250)) (* ?x977 |v5:6|)) (* 20.0 ?x3071))))
 (let ((?x2763 (+ (+ (+ (* (- 15.0) ?x721) (* ?x1319 |v7:4|)) (* 16.0 ?x721)) (* 7.0 ?x3147))))
 (let (($x588 (or (or (and (<= ?x2763 4.0) (<= ?x3446 ?x496)) $x482) (and (and (<= ?x1692 ?x2503) $x2599) (and (<= ?x247 ?x2648) $x1796)))))
 (let ((?x1469 (+ (+ (+ (* ?x2648 |v4:7|) |v4:7|) (* (- 15.0) ?x3138)) (* (- 11.0) ?x3147))))
 (let ((?x2740 (* ?x2503 ?x220)))
 (let (($x116 (<= (+ (+ (+ (* 19.0 |v5:6|) (* 19.0 |v4:7|)) (* 19.0 |v6:5|)) ?x2740) 13.0)))
 (let ((?x1774 (- 11.0)))
 (let ((?x2962 (* ?x1319 |v7:4|)))
 (let (($x1356 (<= (+ (+ (+ (* 2.0 ?x273) (* ?x2096 ?x3138)) (* 0.0 |v4:7|)) ?x2962) ?x1774)))
 (let (($x2362 (<= (+ (+ (+ (* (- 5.0) |v4:7|) ?x73) (* (- 5.0) ?x3138)) ?x3147) 9.0)))
 (let ((?x1794 (* 15.0 ?x3147)))
 (let ((?x175 (+ (+ (+ (* (- 1.0) |v7:4|) (* 3.0 ?x721)) (* (- 2.0) ?x220)) ?x1794)))
 (let (($x1194 (<= (+ (+ (+ (* ?x2572 |v5:6|) (* (- 2.0) |v4:7|)) |v7:4|) (* 16.0 ?x220)) 14.0)))
 (let ((?x2013 (* 16.0 ?x3138)))
 (let ((?x2615 (+ (+ (+ (* ?x2072 ?x273) (* (- 15.0) ?x3138)) (* (- 1.0) ?x721)) ?x2013)))
 (let ((?x2822 (* 11.0 ?x3138)))
 (let (($x1591 (<= (+ (+ (+ (* ?x1319 ?x220) (* 10.0 ?x3071)) (* ?x2096 |v6:5|)) ?x2822) ?x2572)))
 (let (($x1549 (and (and (and $x1591 (<= ?x2615 ?x1774)) (and $x1194 (<= ?x175 19.0))) (and (and $x2362 $x1356) (and $x116 (<= ?x1469 ?x2096))))))
 (let (($x1245 (<= (+ (+ (+ (* (- 1.0) ?x220) ?x73) ?x1336) (* 14.0 ?x2397)) 4.0)))
 (let ((?x2749 (- 17.0)))
 (let ((?x620 (+ (+ (+ (* (- 15.0) ?x3071) (* 14.0 |v5:6|)) (* ?x1319 ?x2397)) (* 3.0 ?x2397))))
 (let (($x2647 (<= (+ (+ (+ ?x1794 (* 7.0 ?x220)) (* 4.0 ?x3147)) (* 0.0 ?x2397)) 15.0)))
 (let (($x369 (<= (+ (+ (+ ?x2013 (* (- 15.0) ?x273)) (* ?x977 |v6:5|)) (* ?x2749 ?x273)) ?x496)))
 (let (($x606 (<= (+ (+ (+ (* ?x71 ?x220) (* ?x1633 |v5:6|)) ?x2740) (* 0.0 |v7:4|)) 10.0)))
 (let ((?x2387 (- 1.0)))
 (let ((?x3039 (* ?x2387 |v6:5|)))
 (let ((?x2101 (+ (+ (+ (* 20.0 ?x721) (* (- 18.0) ?x721)) (* (- 2.0) |v5:6|)) ?x3039)))
 (let (($x1197 (<= (+ (+ (+ (* ?x71 ?x273) (* ?x977 ?x2250)) ?x2013) (* ?x2096 |v7:4|)) 11.0)))
 (let ((?x1477 (- 5.0)))
 (let ((?x234 (+ (+ (+ (* 18.0 |v7:4|) (* 18.0 ?x2397)) (* 8.0 ?x3138)) (* ?x3044 ?x2250))))
 (let (($x1813 (and (and (or (<= ?x234 ?x1477) $x1197) (and (<= ?x2101 ?x977) $x606)) (and (and $x369 $x2647) (and (<= ?x620 ?x2749) $x1245)))))
 (let ((?x938 (+ (+ (+ (* ?x2072 ?x273) (* 0.0 |v4:7|)) (* 9.0 ?x3071)) (* ?x1477 ?x220))))
 (let ((?x999 (* ?x2387 ?x3147)))
 (let (($x3070 (<= (+ (+ (+ (* ?x3044 ?x3147) (* 4.0 |v7:4|)) (* ?x1477 ?x721)) ?x999) 14.0)))
 (let ((?x2518 (+ (+ (+ (* ?x2572 ?x3071) (* ?x977 |v6:5|)) (* (- 15.0) ?x2250)) (* 17.0 ?x2250))))
 (let ((?x2197 (+ (+ (+ (* ?x2503 ?x721) (* 6.0 ?x273)) (* 14.0 |v7:4|)) (* ?x2946 ?x273))))
 (let (($x3111 (and (and (<= ?x2197 8.0) (<= ?x2518 2.0)) (and $x3070 (<= ?x938 15.0)))))
 (let (($x1093 (<= (+ (+ (+ (* 13.0 ?x273) ?x1794) (* 19.0 ?x3147)) (* 2.0 ?x3138)) 13.0)))
 (let ((?x1163 (* ?x2387 ?x220)))
 (let (($x1729 (<= (+ (+ (+ (* 2.0 ?x220) (* 11.0 ?x220)) (* ?x977 ?x220)) ?x1163) 3.0)))
 (let ((?x3458 (* 7.0 |v6:5|)))
 (let (($x378 (<= (+ (+ (+ (* 19.0 |v5:6|) (* ?x2572 |v5:6|)) (* 19.0 |v6:5|)) ?x3458) ?x977)))
 (let (($x757 (and (and (<= (+ (+ (+ (* 12.0 ?x3147) ?x2758) ?x3444) ?x999) 18.0) $x378) (and $x1729 $x1093))))
 (let ((?x1914 (+ (+ (+ (* 17.0 |v7:4|) (* ?x1633 ?x3071)) (* ?x496 ?x220)) (* 5.0 ?x721))))
 (let ((?x1874 (+ (+ (+ (* ?x2072 ?x3138) (* 12.0 ?x3071)) (* 10.0 ?x3147)) (* ?x71 ?x2250))))
 (let ((?x1151 (+ (+ (+ (* ?x2572 |v4:7|) (* ?x2648 ?x721)) (* ?x496 ?x2397)) (* 2.0 ?x2397))))
 (let ((?x2938 (* 7.0 |v5:6|)))
 (let (($x512 (<= (+ (+ (+ (* ?x1774 ?x3071) (* ?x496 ?x3147)) (* 10.0 ?x273)) ?x2938) ?x2648)))
 (let (($x2638 (or (and $x512 (<= ?x1151 ?x2572)) (and (<= ?x1874 ?x2072) (<= ?x1914 19.0)))))
 (let ((?x3356 (+ (+ (+ (* ?x1774 |v7:4|) (* ?x2072 |v4:7|)) (* 6.0 |v5:6|)) (* ?x2572 ?x2250))))
 (let ((?x3123 (+ (+ (+ (* (- 18.0) |v5:6|) (* 6.0 ?x2250)) (* 7.0 ?x3138)) (* ?x977 ?x3147))))
 (let ((?x1450 (+ (+ (+ (* ?x2096 ?x220) (* ?x977 |v6:5|)) (* (- 16.0) |v6:5|)) (* (- 18.0) ?x2250))))
 (let ((?x1360 (* 19.0 |v5:6|)))
 (let (($x677 (<= (+ (+ (+ (* 10.0 ?x3138) (* ?x1633 |v5:6|)) (* 12.0 |v6:5|)) ?x1360) 12.0)))
 (let (($x923 (and (and $x677 (<= ?x1450 2.0)) (or (<= ?x3123 ?x1633) (<= ?x3356 ?x2572)))))
 (let ((?x2098 (+ (+ (+ (* ?x2387 ?x2397) (* ?x2648 ?x273)) (* (- 16.0) |v5:6|)) (* ?x977 ?x721))))
 (let (($x3003 (<= (+ (+ (+ (* 0.0 ?x2397) (* 17.0 ?x3138)) ?x1116) (* ?x2072 ?x3138)) 15.0)))
 (let ((?x2450 (* 6.0 |v5:6|)))
 (let (($x3184 (<= (+ (+ (+ (* ?x1633 ?x721) (* 9.0 ?x721)) (* ?x2096 ?x273)) ?x2450) ?x496)))
 (let ((?x3465 (* ?x2387 ?x3138)))
 (let (($x1192 (<= (+ (+ (+ (* (- 2.0) |v5:6|) (* (- 16.0) |v6:5|)) ?x2448) ?x3465) 10.0)))
 (let ((?x76 (* 12.0 |v6:5|)))
 (let (($x370 (<= (+ (+ (+ (* 20.0 ?x721) (* 18.0 ?x2397)) (* 0.0 ?x273)) ?x76) 12.0)))
 (let (($x2864 (and $x370 (<= (+ (+ (+ (* ?x2387 ?x2250) ?x3458) (* 4.0 ?x3147)) ?x3458) 2.0))))
 (let ((?x1415 (- 15.0)))
 (let (($x2555 (<= (+ (+ (+ (* 17.0 |v5:6|) (* 20.0 ?x721)) (* 16.0 ?x721)) ?x1794) ?x1415)))
 (let (($x95 (<= (+ (+ (+ ?x2188 (* 3.0 ?x721)) (* ?x977 ?x273)) (* ?x2572 ?x721)) 20.0)))
 (let (($x2134 (and (or (and $x95 $x2555) $x2864) (and (and $x1192 $x3184) (and $x3003 (<= ?x2098 ?x2749))))))
 (let (($x710 (and (and (and $x2134 (and $x923 $x2638)) (and (and $x757 $x3111) $x1813)) (and (and $x1549 $x588) (and $x346 (and $x494 $x1750))))))
 (let (($x1161 (not (= |v0:11_st| (RMk1 val!5083)))))
 (let (($x1272 (not (= |v1:10_st| (RMk1 val!5082)))))
 (let (($x1346 (not (= |v2:9_st| (RMk1 val!5081)))))
 (let (($x2005 (not (= |v3:8_st| (RMk1 val!5080)))))
 (let (($x1367 (not (= |v8:3_st| (RMk1 val!5079)))))
 (let (($x3058 (not (= |v9:2_st| (RMk1 val!5078)))))
 (let (($x1294 (not (= |v10:1_st| (RMk1 val!5077)))))
 (let (($x2915 (not (= |v11:0_st| (RMk1 val!5076)))))
 (and $x2915 $x1294 $x3058 $x1367 $x2005 $x1346 $x1272 $x1161 $x710))))))))))))))))))))))))))))))))))))))))))))))))))))))))))))))))))))))))))))))))))))))))))))))))))))))))))))))))))))))))))))))))))))))))))))))
 )
 )
 )
 )
 )
 )
 )
 )
 )
 )
 )
 )
(check-sat)
